Solver command line: ['C:\\gurobi1002\\win64\\bin\\gurobi.bat']

Set parameter Username
Academic license - for non-commercial use only - expires 2024-08-20
Read LP format model from file C:\Users\mhafeman\AppData\Local\Temp\tmpnspbm1mc.pyomo.lp
Reading time = 1.74 seconds
obj: 385441 rows, 332879 columns, 893506 nonzeros
Gurobi Optimizer version 10.0.2 build v10.0.2rc0 (win64)

CPU model: AMD Ryzen 7 3800X 8-Core Processor, instruction set [SSE2|AVX|AVX2]
Thread count: 8 physical cores, 16 logical processors, using up to 16 threads

Optimize a model with 385441 rows, 332879 columns and 893506 nonzeros
Model fingerprint: 0xea9abfcd
Model has 8759 quadratic constraints
Variable types: 254040 continuous, 78839 integer (61320 binary)
Coefficient statistics:
  Matrix range     [1e-04, 3e+02]
  QMatrix range    [1e+00, 1e+00]
  Objective range  [1e-02, 6e+02]
  Bounds range     [1e+00, 3e+00]
  RHS range        [1e-03, 3e+03]
Presolve removed 282968 rows and 221637 columns
Presolve time: 1.37s
Presolved: 102473 rows, 111242 columns, 282443 nonzeros
Variable types: 68757 continuous, 42485 integer (42485 binary)
Deterministic concurrent LP optimizer: primal and dual simplex
Showing first log only...

Concurrent spin time: 0.08s

Solved with primal simplex

Root relaxation: objective -1.777947e+08, 99978 iterations, 0.87 seconds (1.18 work units)

    Nodes    |    Current Node    |     Objective Bounds      |     Work
 Expl Unexpl |  Obj  Depth IntInf | Incumbent    BestBd   Gap | It/Node Time

     0     0 -1.778e+08    0  326          - -1.778e+08      -     -    3s
H    0     0                    -1.77792e+08 -1.778e+08  0.00%     -    3s

Explored 1 nodes (106855 simplex iterations) in 3.46 seconds (3.86 work units)
Thread count was 16 (of 16 available processors)

Solution count 1: -1.77792e+08 

Optimal solution found (tolerance 1.00e-04)
Best objective -1.777921111266e+08, best bound -1.777946915099e+08, gap 0.0015%

